clingo version 5.4.0
Reading from tempSRTISolver.lp ...
Solving...
Answer: 1
matched(14,2) matched(18,3) matched(6,4) matched(20,5) matched(4,6) matched(9,7) matched(7,9) matched(19,10) matched(1,12) matched(2,14) matched(11,15) matched(8,17) matched(3,18) matched(10,19) matched(5,20) matched(12,1) matched(15,11) matched(16,13) matched(13,16) matched(17,8)
Optimization: 80
Answer: 2
matched(14,2) matched(18,3) matched(6,4) matched(20,5) matched(4,6) matched(9,7) matched(7,9) matched(19,10) matched(1,12) matched(2,14) matched(17,15) matched(15,17) matched(3,18) matched(10,19) matched(5,20) matched(12,1) matched(13,11) matched(11,13) matched(8,16) matched(16,8)
Optimization: 79
OPTIMUM FOUND

Models       : 2
  Optimum    : yes
Optimization : 79
Calls        : 1
Time         : 0.024s (Solving: 0.00s 1st Model: 0.00s Unsat: 0.00s)
CPU Time     : 0.024s
